\ SCIP STATISTICS
\   Problem name     : vaccine
\   Variables        : 294 (30 binary, 0 integer, 0 implicit integer, 264 continuous)
\   Constraints      : 305
\   Obj. scale       : 1
\   Obj. offset      : 0
Minimize
 Obj: +1761.97314026085 x1_2 +2238.02685973915 x1_3 +1761.97314026085 x1_4 +2238.02685973915 x1_5 +1761.97314026085 x1_6
      +2238.02685973915 x1_7 +1761.97314026085 x1_8 +2238.02685973915 x1_9 +1761.97314026085 x1_10 +2238.02685973915 x1_11
      +1761.97314026085 x1_12 +2238.02685973915 x1_13 +1761.97314026085 x1_14 +2238.02685973915 x1_15
      +1761.97314026085 x1_16 +2238.02685973915 x1_17 +1761.97314026085 x1_18 +2238.02685973915 x1_19
      +1761.97314026085 x1_20 +2238.02685973915 x1_21 +1761.97314026085 x1_22 +2238.02685973915 x1_23
      +1761.97314026085 x1_24 +2238.02685973915 x1_25 +1761.97314026085 x1_26 +2238.02685973915 x1_27
      +1761.97314026085 x1_28 +2238.02685973915 x1_29 +1761.97314026085 x1_30 +2238.02685973915 x1_31
      +3083.45299545649 x2_2 +3916.54700454351 x2_3 +3083.45299545649 x2_4 +3916.54700454351 x2_5 +3083.45299545649 x2_6
      +3916.54700454351 x2_7 +3083.45299545649 x2_8 +3916.54700454351 x2_9 +3083.45299545649 x2_10 +3916.54700454351 x2_11
      +3083.45299545649 x2_12 +3916.54700454351 x2_13 +3083.45299545649 x2_14 +3916.54700454351 x2_15
      +3083.45299545649 x2_16 +3916.54700454351 x2_17 +3083.45299545649 x2_18 +3916.54700454351 x2_19
      +3083.45299545649 x2_20 +3916.54700454351 x2_21 +3083.45299545649 x2_22 +3916.54700454351 x2_23
      +3083.45299545649 x2_24 +3916.54700454351 x2_25 +3083.45299545649 x2_26 +3916.54700454351 x2_27
      +3083.45299545649 x2_28 +3916.54700454351 x2_29 +3083.45299545649 x2_30 +3916.54700454351 x2_31
      +440.493285065212 x0_2 +559.506714934788 x0_3 +440.493285065212 x0_4 +559.506714934788 x0_5 +440.493285065212 x0_6
      +559.506714934788 x0_7 +440.493285065212 x0_8 +559.506714934788 x0_9 +440.493285065212 x0_10 +559.506714934788 x0_11
      +440.493285065212 x0_12 +559.506714934788 x0_13 +440.493285065212 x0_14 +559.506714934788 x0_15
      +440.493285065212 x0_16 +559.506714934788 x0_17 +440.493285065212 x0_18 +559.506714934788 x0_19
      +440.493285065212 x0_20 +559.506714934788 x0_21 +440.493285065212 x0_22 +559.506714934788 x0_23
      +440.493285065212 x0_24 +559.506714934788 x0_25 +440.493285065212 x0_26 +559.506714934788 x0_27
      +440.493285065212 x0_28 +559.506714934788 x0_29 +440.493285065212 x0_30 +559.506714934788 x0_31
Subject to
 w_con2_0_0: +1 x0_2 -1 y0_2_0_0 -1 y0_2_1_0 +5 x1_2 -1 y1_2_0_0 -1 y1_2_1_0 +10 x2_2 -1 y2_2_0_0 -1 y2_2_1_0
  -1000 Z2 <= +1
 w_con2_0_1: +1 x0_2 -1 y0_2_0_0 -1 y0_2_1_1 +5 x1_2 -1 y1_2_0_0 -1 y1_2_1_1 +10 x2_2 -1 y2_2_0_0 -1 y2_2_1_1
  -1000 Z2 <= +1
 w_con2_1_0: +1 x0_3 -1 y0_3_0_0 -1 y0_3_1_0 +5 x1_3 -1 y1_3_0_0 -1 y1_3_1_0 +10 x2_3 -1 y2_3_0_0 -1 y2_3_1_0
  -1000 Z3 <= +1
 w_con2_1_1: +1 x0_3 -1 y0_3_0_0 -1 y0_3_1_1 +5 x1_3 -1 y1_3_0_0 -1 y1_3_1_1 +10 x2_3 -1 y2_3_0_0 -1 y2_3_1_1
  -1000 Z3 <= +1
 w_con3_0_0: +1 x0_4 -1 y0_4_0_0 -1 y0_4_1_0 +5 x1_4 -1 y1_4_0_0 -1 y1_4_1_0 +10 x2_4 -1 y2_4_0_0 -1 y2_4_1_0
  -1000 Z4 <= +1
 w_con3_0_1: +1 x0_4 -1 y0_4_0_0 -1 y0_4_1_1 +5 x1_4 -1 y1_4_0_0 -1 y1_4_1_1 +10 x2_4 -1 y2_4_0_0 -1 y2_4_1_1
  -1000 Z4 <= +1
 w_con3_1_0: +1 x0_5 -1 y0_5_0_0 -1 y0_5_1_0 +5 x1_5 -1 y1_5_0_0 -1 y1_5_1_0 +10 x2_5 -1 y2_5_0_0 -1 y2_5_1_0
  -1000 Z5 <= +1
 w_con3_1_1: +1 x0_5 -1 y0_5_0_0 -1 y0_5_1_1 +5 x1_5 -1 y1_5_0_0 -1 y1_5_1_1 +10 x2_5 -1 y2_5_0_0 -1 y2_5_1_1
  -1000 Z5 <= +1
 w_con3_2_0: +1 x0_6 -1 y0_6_0_0 -1 y0_6_1_0 +5 x1_6 -1 y1_6_0_0 -1 y1_6_1_0 +10 x2_6 -1 y2_6_0_0 -1 y2_6_1_0
  -1000 Z6 <= +1
 w_con3_2_1: +1 x0_6 -1 y0_6_0_0 -1 y0_6_1_1 +5 x1_6 -1 y1_6_0_0 -1 y1_6_1_1 +10 x2_6 -1 y2_6_0_0 -1 y2_6_1_1
  -1000 Z6 <= +1
 w_con3_3_0: +1 x0_7 -1 y0_7_0_0 -1 y0_7_1_0 +5 x1_7 -1 y1_7_0_0 -1 y1_7_1_0 +10 x2_7 -1 y2_7_0_0 -1 y2_7_1_0
  -1000 Z7 <= +1
 w_con3_3_1: +1 x0_7 -1 y0_7_0_0 -1 y0_7_1_1 +5 x1_7 -1 y1_7_0_0 -1 y1_7_1_1 +10 x2_7 -1 y2_7_0_0 -1 y2_7_1_1
  -1000 Z7 <= +1
 w_con4_0_0: +1 x0_8 -1 y0_8_0_0 -1 y0_8_1_0 +5 x1_8 -1 y1_8_0_0 -1 y1_8_1_0 +10 x2_8 -1 y2_8_0_0 -1 y2_8_1_0
  -1000 Z8 <= +1
 w_con4_0_1: +1 x0_8 -1 y0_8_0_0 -1 y0_8_1_1 +5 x1_8 -1 y1_8_0_0 -1 y1_8_1_1 +10 x2_8 -1 y2_8_0_0 -1 y2_8_1_1
  -1000 Z8 <= +1
 w_con4_1_0: +1 x0_9 -1 y0_9_0_0 -1 y0_9_1_0 +5 x1_9 -1 y1_9_0_0 -1 y1_9_1_0 +10 x2_9 -1 y2_9_0_0 -1 y2_9_1_0
  -1000 Z9 <= +1
 w_con4_1_1: +1 x0_9 -1 y0_9_0_0 -1 y0_9_1_1 +5 x1_9 -1 y1_9_0_0 -1 y1_9_1_1 +10 x2_9 -1 y2_9_0_0 -1 y2_9_1_1
  -1000 Z9 <= +1
 w_con4_2_0: +1 x0_10 -1 y0_10_0_0 -1 y0_10_1_0 +5 x1_10 -1 y1_10_0_0 -1 y1_10_1_0 +10 x2_10 -1 y2_10_0_0
  -1 y2_10_1_0 -1000 Z10 <= +1
 w_con4_2_1: +1 x0_10 -1 y0_10_0_0 -1 y0_10_1_1 +5 x1_10 -1 y1_10_0_0 -1 y1_10_1_1 +10 x2_10 -1 y2_10_0_0
  -1 y2_10_1_1 -1000 Z10 <= +1
 w_con4_3_0: +1 x0_11 -1 y0_11_0_0 -1 y0_11_1_0 +5 x1_11 -1 y1_11_0_0 -1 y1_11_1_0 +10 x2_11 -1 y2_11_0_0
  -1 y2_11_1_0 -1000 Z11 <= +1
 w_con4_3_1: +1 x0_11 -1 y0_11_0_0 -1 y0_11_1_1 +5 x1_11 -1 y1_11_0_0 -1 y1_11_1_1 +10 x2_11 -1 y2_11_0_0
  -1 y2_11_1_1 -1000 Z11 <= +1
 w_con4_4_0: +1 x0_12 -1 y0_12_0_0 -1 y0_12_1_0 +5 x1_12 -1 y1_12_0_0 -1 y1_12_1_0 +10 x2_12 -1 y2_12_0_0
  -1 y2_12_1_0 -1000 Z12 <= +1
 w_con4_4_1: +1 x0_12 -1 y0_12_0_0 -1 y0_12_1_1 +5 x1_12 -1 y1_12_0_0 -1 y1_12_1_1 +10 x2_12 -1 y2_12_0_0
  -1 y2_12_1_1 -1000 Z12 <= +1
 w_con4_5_0: +1 x0_13 -1 y0_13_0_0 -1 y0_13_1_0 +5 x1_13 -1 y1_13_0_0 -1 y1_13_1_0 +10 x2_13 -1 y2_13_0_0
  -1 y2_13_1_0 -1000 Z13 <= +1
 w_con4_5_1: +1 x0_13 -1 y0_13_0_0 -1 y0_13_1_1 +5 x1_13 -1 y1_13_0_0 -1 y1_13_1_1 +10 x2_13 -1 y2_13_0_0
  -1 y2_13_1_1 -1000 Z13 <= +1
 w_con4_6_0: +1 x0_14 -1 y0_14_0_0 -1 y0_14_1_0 +5 x1_14 -1 y1_14_0_0 -1 y1_14_1_0 +10 x2_14 -1 y2_14_0_0
  -1 y2_14_1_0 -1000 Z14 <= +1
 w_con4_6_1: +1 x0_14 -1 y0_14_0_0 -1 y0_14_1_1 +5 x1_14 -1 y1_14_0_0 -1 y1_14_1_1 +10 x2_14 -1 y2_14_0_0
  -1 y2_14_1_1 -1000 Z14 <= +1
 w_con4_7_0: +1 x0_15 -1 y0_15_0_0 -1 y0_15_1_0 +5 x1_15 -1 y1_15_0_0 -1 y1_15_1_0 +10 x2_15 -1 y2_15_0_0
  -1 y2_15_1_0 -1000 Z15 <= +1
 w_con4_7_1: +1 x0_15 -1 y0_15_0_0 -1 y0_15_1_1 +5 x1_15 -1 y1_15_0_0 -1 y1_15_1_1 +10 x2_15 -1 y2_15_0_0
  -1 y2_15_1_1 -1000 Z15 <= +1
 w_con5_0_0: +1 x0_16 -1 y0_16_0_0 +5 x1_16 -1 y1_16_0_0 +10 x2_16 -1 y2_16_0_0 -1000 Z16 <= +1
 w_con5_1_0: +1 x0_17 -1 y0_17_0_0 +5 x1_17 -1 y1_17_0_0 +10 x2_17 -1 y2_17_0_0 -1000 Z17 <= +1
 w_con5_2_0: +1 x0_18 -1 y0_18_0_0 +5 x1_18 -1 y1_18_0_0 +10 x2_18 -1 y2_18_0_0 -1000 Z18 <= +1
 w_con5_3_0: +1 x0_19 -1 y0_19_0_0 +5 x1_19 -1 y1_19_0_0 +10 x2_19 -1 y2_19_0_0 -1000 Z19 <= +1
 w_con5_4_0: +1 x0_20 -1 y0_20_0_0 +5 x1_20 -1 y1_20_0_0 +10 x2_20 -1 y2_20_0_0 -1000 Z20 <= +1
 w_con5_5_0: +1 x0_21 -1 y0_21_0_0 +5 x1_21 -1 y1_21_0_0 +10 x2_21 -1 y2_21_0_0 -1000 Z21 <= +1
 w_con5_6_0: +1 x0_22 -1 y0_22_0_0 +5 x1_22 -1 y1_22_0_0 +10 x2_22 -1 y2_22_0_0 -1000 Z22 <= +1
 w_con5_7_0: +1 x0_23 -1 y0_23_0_0 +5 x1_23 -1 y1_23_0_0 +10 x2_23 -1 y2_23_0_0 -1000 Z23 <= +1
 w_con5_8_0: +1 x0_24 -1 y0_24_0_0 +5 x1_24 -1 y1_24_0_0 +10 x2_24 -1 y2_24_0_0 -1000 Z24 <= +1
 w_con5_9_0: +1 x0_25 -1 y0_25_0_0 +5 x1_25 -1 y1_25_0_0 +10 x2_25 -1 y2_25_0_0 -1000 Z25 <= +1
 w_con5_10_0: +1 x0_26 -1 y0_26_0_0 +5 x1_26 -1 y1_26_0_0 +10 x2_26 -1 y2_26_0_0 -1000 Z26 <= +1
 w_con5_11_0: +1 x0_27 -1 y0_27_0_0 +5 x1_27 -1 y1_27_0_0 +10 x2_27 -1 y2_27_0_0 -1000 Z27 <= +1
 w_con5_12_0: +1 x0_28 -1 y0_28_0_0 +5 x1_28 -1 y1_28_0_0 +10 x2_28 -1 y2_28_0_0 -1000 Z28 <= +1
 w_con5_13_0: +1 x0_29 -1 y0_29_0_0 +5 x1_29 -1 y1_29_0_0 +10 x2_29 -1 y2_29_0_0 -1000 Z29 <= +1
 w_con5_14_0: +1 x0_30 -1 y0_30_0_0 +5 x1_30 -1 y1_30_0_0 +10 x2_30 -1 y2_30_0_0 -1000 Z30 <= +1
 w_con5_15_0: +1 x0_31 -1 y0_31_0_0 +5 x1_31 -1 y1_31_0_0 +10 x2_31 -1 y2_31_0_0 -1000 Z31 <= +1
 sec_con0_2_0_0: +1 x0_2 -1 y0_2_0_0 -1 y0_2_1_0 >= +0
 sec_con0_2_0_1: +1 x0_2 -1 y0_2_0_0 -1 y0_2_1_1 >= +0
 sec_con0_2_1_0: +1 x0_3 -1 y0_3_0_0 -1 y0_3_1_0 >= +0
 sec_con0_2_1_1: +1 x0_3 -1 y0_3_0_0 -1 y0_3_1_1 >= +0
 sec_con0_3_0_0: +1 x0_4 -1 y0_4_0_0 -1 y0_4_1_0 >= +0
 sec_con0_3_0_1: +1 x0_4 -1 y0_4_0_0 -1 y0_4_1_1 >= +0
 sec_con0_3_1_0: +1 x0_5 -1 y0_5_0_0 -1 y0_5_1_0 >= +0
 sec_con0_3_1_1: +1 x0_5 -1 y0_5_0_0 -1 y0_5_1_1 >= +0
 sec_con0_3_2_0: +1 x0_6 -1 y0_6_0_0 -1 y0_6_1_0 >= +0
 sec_con0_3_2_1: +1 x0_6 -1 y0_6_0_0 -1 y0_6_1_1 >= +0
 sec_con0_3_3_0: +1 x0_7 -1 y0_7_0_0 -1 y0_7_1_0 >= +0
 sec_con0_3_3_1: +1 x0_7 -1 y0_7_0_0 -1 y0_7_1_1 >= +0
 sec_con0_4_0_0: +1 x0_8 -1 y0_8_0_0 -1 y0_8_1_0 >= +0
 sec_con0_4_0_1: +1 x0_8 -1 y0_8_0_0 -1 y0_8_1_1 >= +0
 sec_con0_4_1_0: +1 x0_9 -1 y0_9_0_0 -1 y0_9_1_0 >= +0
 sec_con0_4_1_1: +1 x0_9 -1 y0_9_0_0 -1 y0_9_1_1 >= +0
 sec_con0_4_2_0: +1 x0_10 -1 y0_10_0_0 -1 y0_10_1_0 >= +0
 sec_con0_4_2_1: +1 x0_10 -1 y0_10_0_0 -1 y0_10_1_1 >= +0
 sec_con0_4_3_0: +1 x0_11 -1 y0_11_0_0 -1 y0_11_1_0 >= +0
 sec_con0_4_3_1: +1 x0_11 -1 y0_11_0_0 -1 y0_11_1_1 >= +0
 sec_con0_4_4_0: +1 x0_12 -1 y0_12_0_0 -1 y0_12_1_0 >= +0
 sec_con0_4_4_1: +1 x0_12 -1 y0_12_0_0 -1 y0_12_1_1 >= +0
 sec_con0_4_5_0: +1 x0_13 -1 y0_13_0_0 -1 y0_13_1_0 >= +0
 sec_con0_4_5_1: +1 x0_13 -1 y0_13_0_0 -1 y0_13_1_1 >= +0
 sec_con0_4_6_0: +1 x0_14 -1 y0_14_0_0 -1 y0_14_1_0 >= +0
 sec_con0_4_6_1: +1 x0_14 -1 y0_14_0_0 -1 y0_14_1_1 >= +0
 sec_con0_4_7_0: +1 x0_15 -1 y0_15_0_0 -1 y0_15_1_0 >= +0
 sec_con0_4_7_1: +1 x0_15 -1 y0_15_0_0 -1 y0_15_1_1 >= +0
 sec_con0_5_0_0: +1 x0_16 -1 y0_16_0_0 >= +0
 sec_con0_5_1_0: +1 x0_17 -1 y0_17_0_0 >= +0
 sec_con0_5_2_0: +1 x0_18 -1 y0_18_0_0 >= +0
 sec_con0_5_3_0: +1 x0_19 -1 y0_19_0_0 >= +0
 sec_con0_5_4_0: +1 x0_20 -1 y0_20_0_0 >= +0
 sec_con0_5_5_0: +1 x0_21 -1 y0_21_0_0 >= +0
 sec_con0_5_6_0: +1 x0_22 -1 y0_22_0_0 >= +0
 sec_con0_5_7_0: +1 x0_23 -1 y0_23_0_0 >= +0
 sec_con0_5_8_0: +1 x0_24 -1 y0_24_0_0 >= +0
 sec_con0_5_9_0: +1 x0_25 -1 y0_25_0_0 >= +0
 sec_con0_5_10_0: +1 x0_26 -1 y0_26_0_0 >= +0
 sec_con0_5_11_0: +1 x0_27 -1 y0_27_0_0 >= +0
 sec_con0_5_12_0: +1 x0_28 -1 y0_28_0_0 >= +0
 sec_con0_5_13_0: +1 x0_29 -1 y0_29_0_0 >= +0
 sec_con0_5_14_0: +1 x0_30 -1 y0_30_0_0 >= +0
 sec_con0_5_15_0: +1 x0_31 -1 y0_31_0_0 >= +0
 sec_con1_2_0_0: +5 x1_2 -1 y1_2_0_0 -1 y1_2_1_0 >= +0
 sec_con1_2_0_1: +5 x1_2 -1 y1_2_0_0 -1 y1_2_1_1 >= +0
 sec_con1_2_1_0: +5 x1_3 -1 y1_3_0_0 -1 y1_3_1_0 >= +0
 sec_con1_2_1_1: +5 x1_3 -1 y1_3_0_0 -1 y1_3_1_1 >= +0
 sec_con1_3_0_0: +5 x1_4 -1 y1_4_0_0 -1 y1_4_1_0 >= +0
 sec_con1_3_0_1: +5 x1_4 -1 y1_4_0_0 -1 y1_4_1_1 >= +0
 sec_con1_3_1_0: +5 x1_5 -1 y1_5_0_0 -1 y1_5_1_0 >= +0
 sec_con1_3_1_1: +5 x1_5 -1 y1_5_0_0 -1 y1_5_1_1 >= +0
 sec_con1_3_2_0: +5 x1_6 -1 y1_6_0_0 -1 y1_6_1_0 >= +0
 sec_con1_3_2_1: +5 x1_6 -1 y1_6_0_0 -1 y1_6_1_1 >= +0
 sec_con1_3_3_0: +5 x1_7 -1 y1_7_0_0 -1 y1_7_1_0 >= +0
 sec_con1_3_3_1: +5 x1_7 -1 y1_7_0_0 -1 y1_7_1_1 >= +0
 sec_con1_4_0_0: +5 x1_8 -1 y1_8_0_0 -1 y1_8_1_0 >= +0
 sec_con1_4_0_1: +5 x1_8 -1 y1_8_0_0 -1 y1_8_1_1 >= +0
 sec_con1_4_1_0: +5 x1_9 -1 y1_9_0_0 -1 y1_9_1_0 >= +0
 sec_con1_4_1_1: +5 x1_9 -1 y1_9_0_0 -1 y1_9_1_1 >= +0
 sec_con1_4_2_0: +5 x1_10 -1 y1_10_0_0 -1 y1_10_1_0 >= +0
 sec_con1_4_2_1: +5 x1_10 -1 y1_10_0_0 -1 y1_10_1_1 >= +0
 sec_con1_4_3_0: +5 x1_11 -1 y1_11_0_0 -1 y1_11_1_0 >= +0
 sec_con1_4_3_1: +5 x1_11 -1 y1_11_0_0 -1 y1_11_1_1 >= +0
 sec_con1_4_4_0: +5 x1_12 -1 y1_12_0_0 -1 y1_12_1_0 >= +0
 sec_con1_4_4_1: +5 x1_12 -1 y1_12_0_0 -1 y1_12_1_1 >= +0
 sec_con1_4_5_0: +5 x1_13 -1 y1_13_0_0 -1 y1_13_1_0 >= +0
 sec_con1_4_5_1: +5 x1_13 -1 y1_13_0_0 -1 y1_13_1_1 >= +0
 sec_con1_4_6_0: +5 x1_14 -1 y1_14_0_0 -1 y1_14_1_0 >= +0
 sec_con1_4_6_1: +5 x1_14 -1 y1_14_0_0 -1 y1_14_1_1 >= +0
 sec_con1_4_7_0: +5 x1_15 -1 y1_15_0_0 -1 y1_15_1_0 >= +0
 sec_con1_4_7_1: +5 x1_15 -1 y1_15_0_0 -1 y1_15_1_1 >= +0
 sec_con1_5_0_0: +5 x1_16 -1 y1_16_0_0 >= +0
 sec_con1_5_1_0: +5 x1_17 -1 y1_17_0_0 >= +0
 sec_con1_5_2_0: +5 x1_18 -1 y1_18_0_0 >= +0
 sec_con1_5_3_0: +5 x1_19 -1 y1_19_0_0 >= +0
 sec_con1_5_4_0: +5 x1_20 -1 y1_20_0_0 >= +0
 sec_con1_5_5_0: +5 x1_21 -1 y1_21_0_0 >= +0
 sec_con1_5_6_0: +5 x1_22 -1 y1_22_0_0 >= +0
 sec_con1_5_7_0: +5 x1_23 -1 y1_23_0_0 >= +0
 sec_con1_5_8_0: +5 x1_24 -1 y1_24_0_0 >= +0
 sec_con1_5_9_0: +5 x1_25 -1 y1_25_0_0 >= +0
 sec_con1_5_10_0: +5 x1_26 -1 y1_26_0_0 >= +0
 sec_con1_5_11_0: +5 x1_27 -1 y1_27_0_0 >= +0
 sec_con1_5_12_0: +5 x1_28 -1 y1_28_0_0 >= +0
 sec_con1_5_13_0: +5 x1_29 -1 y1_29_0_0 >= +0
 sec_con1_5_14_0: +5 x1_30 -1 y1_30_0_0 >= +0
 sec_con1_5_15_0: +5 x1_31 -1 y1_31_0_0 >= +0
 sec_con2_2_0_0: +10 x2_2 -1 y2_2_0_0 -1 y2_2_1_0 >= +0
 sec_con2_2_0_1: +10 x2_2 -1 y2_2_0_0 -1 y2_2_1_1 >= +0
 sec_con2_2_1_0: +10 x2_3 -1 y2_3_0_0 -1 y2_3_1_0 >= +0
 sec_con2_2_1_1: +10 x2_3 -1 y2_3_0_0 -1 y2_3_1_1 >= +0
 sec_con2_3_0_0: +10 x2_4 -1 y2_4_0_0 -1 y2_4_1_0 >= +0
 sec_con2_3_0_1: +10 x2_4 -1 y2_4_0_0 -1 y2_4_1_1 >= +0
 sec_con2_3_1_0: +10 x2_5 -1 y2_5_0_0 -1 y2_5_1_0 >= +0
 sec_con2_3_1_1: +10 x2_5 -1 y2_5_0_0 -1 y2_5_1_1 >= +0
 sec_con2_3_2_0: +10 x2_6 -1 y2_6_0_0 -1 y2_6_1_0 >= +0
 sec_con2_3_2_1: +10 x2_6 -1 y2_6_0_0 -1 y2_6_1_1 >= +0
 sec_con2_3_3_0: +10 x2_7 -1 y2_7_0_0 -1 y2_7_1_0 >= +0
 sec_con2_3_3_1: +10 x2_7 -1 y2_7_0_0 -1 y2_7_1_1 >= +0
 sec_con2_4_0_0: +10 x2_8 -1 y2_8_0_0 -1 y2_8_1_0 >= +0
 sec_con2_4_0_1: +10 x2_8 -1 y2_8_0_0 -1 y2_8_1_1 >= +0
 sec_con2_4_1_0: +10 x2_9 -1 y2_9_0_0 -1 y2_9_1_0 >= +0
 sec_con2_4_1_1: +10 x2_9 -1 y2_9_0_0 -1 y2_9_1_1 >= +0
 sec_con2_4_2_0: +10 x2_10 -1 y2_10_0_0 -1 y2_10_1_0 >= +0
 sec_con2_4_2_1: +10 x2_10 -1 y2_10_0_0 -1 y2_10_1_1 >= +0
 sec_con2_4_3_0: +10 x2_11 -1 y2_11_0_0 -1 y2_11_1_0 >= +0
 sec_con2_4_3_1: +10 x2_11 -1 y2_11_0_0 -1 y2_11_1_1 >= +0
 sec_con2_4_4_0: +10 x2_12 -1 y2_12_0_0 -1 y2_12_1_0 >= +0
 sec_con2_4_4_1: +10 x2_12 -1 y2_12_0_0 -1 y2_12_1_1 >= +0
 sec_con2_4_5_0: +10 x2_13 -1 y2_13_0_0 -1 y2_13_1_0 >= +0
 sec_con2_4_5_1: +10 x2_13 -1 y2_13_0_0 -1 y2_13_1_1 >= +0
 sec_con2_4_6_0: +10 x2_14 -1 y2_14_0_0 -1 y2_14_1_0 >= +0
 sec_con2_4_6_1: +10 x2_14 -1 y2_14_0_0 -1 y2_14_1_1 >= +0
 sec_con2_4_7_0: +10 x2_15 -1 y2_15_0_0 -1 y2_15_1_0 >= +0
 sec_con2_4_7_1: +10 x2_15 -1 y2_15_0_0 -1 y2_15_1_1 >= +0
 sec_con2_5_0_0: +10 x2_16 -1 y2_16_0_0 >= +0
 sec_con2_5_1_0: +10 x2_17 -1 y2_17_0_0 >= +0
 sec_con2_5_2_0: +10 x2_18 -1 y2_18_0_0 >= +0
 sec_con2_5_3_0: +10 x2_19 -1 y2_19_0_0 >= +0
 sec_con2_5_4_0: +10 x2_20 -1 y2_20_0_0 >= +0
 sec_con2_5_5_0: +10 x2_21 -1 y2_21_0_0 >= +0
 sec_con2_5_6_0: +10 x2_22 -1 y2_22_0_0 >= +0
 sec_con2_5_7_0: +10 x2_23 -1 y2_23_0_0 >= +0
 sec_con2_5_8_0: +10 x2_24 -1 y2_24_0_0 >= +0
 sec_con2_5_9_0: +10 x2_25 -1 y2_25_0_0 >= +0
 sec_con2_5_10_0: +10 x2_26 -1 y2_26_0_0 >= +0
 sec_con2_5_11_0: +10 x2_27 -1 y2_27_0_0 >= +0
 sec_con2_5_12_0: +10 x2_28 -1 y2_28_0_0 >= +0
 sec_con2_5_13_0: +10 x2_29 -1 y2_29_0_0 >= +0
 sec_con2_5_14_0: +10 x2_30 -1 y2_30_0_0 >= +0
 sec_con2_5_15_0: +10 x2_31 -1 y2_31_0_0 >= +0
 sh_con2_0_0: +100 Z16 +1 y0_2_0_0 +1 y1_2_0_0 +1 y2_2_0_0 >= +3
 sh_con2_0_1: +100 Z17 +1 y0_2_0_0 +1 y1_2_0_0 +1 y2_2_0_0 >= +3
 sh_con2_0_2: +100 Z18 +1 y0_2_0_0 +1 y1_2_0_0 +1 y2_2_0_0 >= +3
 sh_con2_0_3: +100 Z19 +1 y0_2_0_0 +1 y1_2_0_0 +1 y2_2_0_0 >= +3
 sh_con2_0_4: +100 Z20 +1 y0_2_0_0 +1 y1_2_0_0 +1 y2_2_0_0 >= +3
 sh_con2_0_5: +100 Z21 +1 y0_2_0_0 +1 y1_2_0_0 +1 y2_2_0_0 >= +3
 sh_con2_0_6: +100 Z22 +1 y0_2_0_0 +1 y1_2_0_0 +1 y2_2_0_0 >= +3
 sh_con2_0_7: +100 Z23 +1 y0_2_0_0 +1 y1_2_0_0 +1 y2_2_0_0 >= +3
 sh_con2_1_0: +100 Z24 +1 y0_3_0_0 +1 y1_3_0_0 +1 y2_3_0_0 >= +4
 sh_con2_1_1: +100 Z25 +1 y0_3_0_0 +1 y1_3_0_0 +1 y2_3_0_0 >= +4
 sh_con2_1_2: +100 Z26 +1 y0_3_0_0 +1 y1_3_0_0 +1 y2_3_0_0 >= +4
 sh_con2_1_3: +100 Z27 +1 y0_3_0_0 +1 y1_3_0_0 +1 y2_3_0_0 >= +4
 sh_con2_1_4: +100 Z28 +1 y0_3_0_0 +1 y1_3_0_0 +1 y2_3_0_0 >= +4
 sh_con2_1_5: +100 Z29 +1 y0_3_0_0 +1 y1_3_0_0 +1 y2_3_0_0 >= +4
 sh_con2_1_6: +100 Z30 +1 y0_3_0_0 +1 y1_3_0_0 +1 y2_3_0_0 >= +4
 sh_con2_1_7: +100 Z31 +1 y0_3_0_0 +1 y1_3_0_0 +1 y2_3_0_0 >= +4
 sh_con3_0_0: +100 Z16 +1 y0_4_0_0 +1 y0_2_1_0 +1 y1_4_0_0 +1 y1_2_1_0 +1 y2_4_0_0 +1 y2_2_1_0 >= +3
 sh_con3_0_1: +100 Z17 +1 y0_4_0_0 +1 y0_2_1_0 +1 y1_4_0_0 +1 y1_2_1_0 +1 y2_4_0_0 +1 y2_2_1_0 >= +3
 sh_con3_0_2: +100 Z18 +1 y0_4_0_0 +1 y0_2_1_0 +1 y1_4_0_0 +1 y1_2_1_0 +1 y2_4_0_0 +1 y2_2_1_0 >= +3
 sh_con3_0_3: +100 Z19 +1 y0_4_0_0 +1 y0_2_1_0 +1 y1_4_0_0 +1 y1_2_1_0 +1 y2_4_0_0 +1 y2_2_1_0 >= +3
 sh_con3_1_0: +100 Z20 +1 y0_5_0_0 +1 y0_2_1_1 +1 y1_5_0_0 +1 y1_2_1_1 +1 y2_5_0_0 +1 y2_2_1_1 >= +4
 sh_con3_1_1: +100 Z21 +1 y0_5_0_0 +1 y0_2_1_1 +1 y1_5_0_0 +1 y1_2_1_1 +1 y2_5_0_0 +1 y2_2_1_1 >= +4
 sh_con3_1_2: +100 Z22 +1 y0_5_0_0 +1 y0_2_1_1 +1 y1_5_0_0 +1 y1_2_1_1 +1 y2_5_0_0 +1 y2_2_1_1 >= +4
 sh_con3_1_3: +100 Z23 +1 y0_5_0_0 +1 y0_2_1_1 +1 y1_5_0_0 +1 y1_2_1_1 +1 y2_5_0_0 +1 y2_2_1_1 >= +4
 sh_con3_2_0: +100 Z24 +1 y0_6_0_0 +1 y0_3_1_0 +1 y1_6_0_0 +1 y1_3_1_0 +1 y2_6_0_0 +1 y2_3_1_0 >= +3
 sh_con3_2_1: +100 Z25 +1 y0_6_0_0 +1 y0_3_1_0 +1 y1_6_0_0 +1 y1_3_1_0 +1 y2_6_0_0 +1 y2_3_1_0 >= +3
 sh_con3_2_2: +100 Z26 +1 y0_6_0_0 +1 y0_3_1_0 +1 y1_6_0_0 +1 y1_3_1_0 +1 y2_6_0_0 +1 y2_3_1_0 >= +3
 sh_con3_2_3: +100 Z27 +1 y0_6_0_0 +1 y0_3_1_0 +1 y1_6_0_0 +1 y1_3_1_0 +1 y2_6_0_0 +1 y2_3_1_0 >= +3
 sh_con3_3_0: +100 Z28 +1 y0_7_0_0 +1 y0_3_1_1 +1 y1_7_0_0 +1 y1_3_1_1 +1 y2_7_0_0 +1 y2_3_1_1 >= +4
 sh_con3_3_1: +100 Z29 +1 y0_7_0_0 +1 y0_3_1_1 +1 y1_7_0_0 +1 y1_3_1_1 +1 y2_7_0_0 +1 y2_3_1_1 >= +4
 sh_con3_3_2: +100 Z30 +1 y0_7_0_0 +1 y0_3_1_1 +1 y1_7_0_0 +1 y1_3_1_1 +1 y2_7_0_0 +1 y2_3_1_1 >= +4
 sh_con3_3_3: +100 Z31 +1 y0_7_0_0 +1 y0_3_1_1 +1 y1_7_0_0 +1 y1_3_1_1 +1 y2_7_0_0 +1 y2_3_1_1 >= +4
 sh_con4_0_0: +100 Z16 +1 y0_8_0_0 +1 y0_4_1_0 +1 y1_8_0_0 +1 y1_4_1_0 +1 y2_8_0_0 +1 y2_4_1_0 >= +3
 sh_con4_0_1: +100 Z17 +1 y0_8_0_0 +1 y0_4_1_0 +1 y1_8_0_0 +1 y1_4_1_0 +1 y2_8_0_0 +1 y2_4_1_0 >= +3
 sh_con4_1_0: +100 Z18 +1 y0_9_0_0 +1 y0_4_1_1 +1 y1_9_0_0 +1 y1_4_1_1 +1 y2_9_0_0 +1 y2_4_1_1 >= +4
 sh_con4_1_1: +100 Z19 +1 y0_9_0_0 +1 y0_4_1_1 +1 y1_9_0_0 +1 y1_4_1_1 +1 y2_9_0_0 +1 y2_4_1_1 >= +4
 sh_con4_2_0: +100 Z20 +1 y0_10_0_0 +1 y0_5_1_0 +1 y1_10_0_0 +1 y1_5_1_0 +1 y2_10_0_0 +1 y2_5_1_0 >= +3
 sh_con4_2_1: +100 Z21 +1 y0_10_0_0 +1 y0_5_1_0 +1 y1_10_0_0 +1 y1_5_1_0 +1 y2_10_0_0 +1 y2_5_1_0 >= +3
 sh_con4_3_0: +100 Z22 +1 y0_11_0_0 +1 y0_5_1_1 +1 y1_11_0_0 +1 y1_5_1_1 +1 y2_11_0_0 +1 y2_5_1_1 >= +4
 sh_con4_3_1: +100 Z23 +1 y0_11_0_0 +1 y0_5_1_1 +1 y1_11_0_0 +1 y1_5_1_1 +1 y2_11_0_0 +1 y2_5_1_1 >= +4
 sh_con4_4_0: +100 Z24 +1 y0_12_0_0 +1 y0_6_1_0 +1 y1_12_0_0 +1 y1_6_1_0 +1 y2_12_0_0 +1 y2_6_1_0 >= +3
 sh_con4_4_1: +100 Z25 +1 y0_12_0_0 +1 y0_6_1_0 +1 y1_12_0_0 +1 y1_6_1_0 +1 y2_12_0_0 +1 y2_6_1_0 >= +3
 sh_con4_5_0: +100 Z26 +1 y0_13_0_0 +1 y0_6_1_1 +1 y1_13_0_0 +1 y1_6_1_1 +1 y2_13_0_0 +1 y2_6_1_1 >= +4
 sh_con4_5_1: +100 Z27 +1 y0_13_0_0 +1 y0_6_1_1 +1 y1_13_0_0 +1 y1_6_1_1 +1 y2_13_0_0 +1 y2_6_1_1 >= +4
 sh_con4_6_0: +100 Z28 +1 y0_14_0_0 +1 y0_7_1_0 +1 y1_14_0_0 +1 y1_7_1_0 +1 y2_14_0_0 +1 y2_7_1_0 >= +3
 sh_con4_6_1: +100 Z29 +1 y0_14_0_0 +1 y0_7_1_0 +1 y1_14_0_0 +1 y1_7_1_0 +1 y2_14_0_0 +1 y2_7_1_0 >= +3
 sh_con4_7_0: +100 Z30 +1 y0_15_0_0 +1 y0_7_1_1 +1 y1_15_0_0 +1 y1_7_1_1 +1 y2_15_0_0 +1 y2_7_1_1 >= +4
 sh_con4_7_1: +100 Z31 +1 y0_15_0_0 +1 y0_7_1_1 +1 y1_15_0_0 +1 y1_7_1_1 +1 y2_15_0_0 +1 y2_7_1_1 >= +4
 sh_con5_0_0: +100 Z16 +1 y0_16_0_0 +1 y0_8_1_0 +1 y1_16_0_0 +1 y1_8_1_0 +1 y2_16_0_0 +1 y2_8_1_0 >= +3
 sh_con5_1_0: +100 Z17 +1 y0_17_0_0 +1 y0_8_1_1 +1 y1_17_0_0 +1 y1_8_1_1 +1 y2_17_0_0 +1 y2_8_1_1 >= +4
 sh_con5_2_0: +100 Z18 +1 y0_18_0_0 +1 y0_9_1_0 +1 y1_18_0_0 +1 y1_9_1_0 +1 y2_18_0_0 +1 y2_9_1_0 >= +3
 sh_con5_3_0: +100 Z19 +1 y0_19_0_0 +1 y0_9_1_1 +1 y1_19_0_0 +1 y1_9_1_1 +1 y2_19_0_0 +1 y2_9_1_1 >= +4
 sh_con5_4_0: +100 Z20 +1 y0_20_0_0 +1 y0_10_1_0 +1 y1_20_0_0 +1 y1_10_1_0 +1 y2_20_0_0 +1 y2_10_1_0 >= +3
 sh_con5_5_0: +100 Z21 +1 y0_21_0_0 +1 y0_10_1_1 +1 y1_21_0_0 +1 y1_10_1_1 +1 y2_21_0_0 +1 y2_10_1_1 >= +4
 sh_con5_6_0: +100 Z22 +1 y0_22_0_0 +1 y0_11_1_0 +1 y1_22_0_0 +1 y1_11_1_0 +1 y2_22_0_0 +1 y2_11_1_0 >= +3
 sh_con5_7_0: +100 Z23 +1 y0_23_0_0 +1 y0_11_1_1 +1 y1_23_0_0 +1 y1_11_1_1 +1 y2_23_0_0 +1 y2_11_1_1 >= +4
 sh_con5_8_0: +100 Z24 +1 y0_24_0_0 +1 y0_12_1_0 +1 y1_24_0_0 +1 y1_12_1_0 +1 y2_24_0_0 +1 y2_12_1_0 >= +3
 sh_con5_9_0: +100 Z25 +1 y0_25_0_0 +1 y0_12_1_1 +1 y1_25_0_0 +1 y1_12_1_1 +1 y2_25_0_0 +1 y2_12_1_1 >= +4
 sh_con5_10_0: +100 Z26 +1 y0_26_0_0 +1 y0_13_1_0 +1 y1_26_0_0 +1 y1_13_1_0 +1 y2_26_0_0 +1 y2_13_1_0
  >= +3
 sh_con5_11_0: +100 Z27 +1 y0_27_0_0 +1 y0_13_1_1 +1 y1_27_0_0 +1 y1_13_1_1 +1 y2_27_0_0 +1 y2_13_1_1
  >= +4
 sh_con5_12_0: +100 Z28 +1 y0_28_0_0 +1 y0_14_1_0 +1 y1_28_0_0 +1 y1_14_1_0 +1 y2_28_0_0 +1 y2_14_1_0
  >= +3
 sh_con5_13_0: +100 Z29 +1 y0_29_0_0 +1 y0_14_1_1 +1 y1_29_0_0 +1 y1_14_1_1 +1 y2_29_0_0 +1 y2_14_1_1
  >= +4
 sh_con5_14_0: +100 Z30 +1 y0_30_0_0 +1 y0_15_1_0 +1 y1_30_0_0 +1 y1_15_1_0 +1 y2_30_0_0 +1 y2_15_1_0
  >= +3
 sh_con5_15_0: +100 Z31 +1 y0_31_0_0 +1 y0_15_1_1 +1 y1_31_0_0 +1 y1_15_1_1 +1 y2_31_0_0 +1 y2_15_1_1
  >= +4
 z_con0_2: +1 Z16 -1 Z2 >= +0
 z_con0_3: +1 Z16 -1 Z4 >= +0
 z_con0_4: +1 Z16 -1 Z8 >= +0
 z_con0_5: +1 Z16 -1 Z16 >= +0
 z_con1_2: +1 Z17 -1 Z2 >= +0
 z_con1_3: +1 Z17 -1 Z4 >= +0
 z_con1_4: +1 Z17 -1 Z8 >= +0
 z_con1_5: +1 Z17 -1 Z17 >= +0
 z_con2_2: +1 Z18 -1 Z2 >= +0
 z_con2_3: +1 Z18 -1 Z4 >= +0
 z_con2_4: +1 Z18 -1 Z9 >= +0
 z_con2_5: +1 Z18 -1 Z18 >= +0
 z_con3_2: +1 Z19 -1 Z2 >= +0
 z_con3_3: +1 Z19 -1 Z4 >= +0
 z_con3_4: +1 Z19 -1 Z9 >= +0
 z_con3_5: +1 Z19 -1 Z19 >= +0
 z_con4_2: +1 Z20 -1 Z2 >= +0
 z_con4_3: +1 Z20 -1 Z5 >= +0
 z_con4_4: +1 Z20 -1 Z10 >= +0
 z_con4_5: +1 Z20 -1 Z20 >= +0
 z_con5_2: +1 Z21 -1 Z2 >= +0
 z_con5_3: +1 Z21 -1 Z5 >= +0
 z_con5_4: +1 Z21 -1 Z10 >= +0
 z_con5_5: +1 Z21 -1 Z21 >= +0
 z_con6_2: +1 Z22 -1 Z2 >= +0
 z_con6_3: +1 Z22 -1 Z5 >= +0
 z_con6_4: +1 Z22 -1 Z11 >= +0
 z_con6_5: +1 Z22 -1 Z22 >= +0
 z_con7_2: +1 Z23 -1 Z2 >= +0
 z_con7_3: +1 Z23 -1 Z5 >= +0
 z_con7_4: +1 Z23 -1 Z11 >= +0
 z_con7_5: +1 Z23 -1 Z23 >= +0
 z_con8_2: +1 Z24 -1 Z3 >= +0
 z_con8_3: +1 Z24 -1 Z6 >= +0
 z_con8_4: +1 Z24 -1 Z12 >= +0
 z_con8_5: +1 Z24 -1 Z24 >= +0
 z_con9_2: +1 Z25 -1 Z3 >= +0
 z_con9_3: +1 Z25 -1 Z6 >= +0
 z_con9_4: +1 Z25 -1 Z12 >= +0
 z_con9_5: +1 Z25 -1 Z25 >= +0
 z_con10_2: +1 Z26 -1 Z3 >= +0
 z_con10_3: +1 Z26 -1 Z6 >= +0
 z_con10_4: +1 Z26 -1 Z13 >= +0
 z_con10_5: +1 Z26 -1 Z26 >= +0
 z_con11_2: +1 Z27 -1 Z3 >= +0
 z_con11_3: +1 Z27 -1 Z6 >= +0
 z_con11_4: +1 Z27 -1 Z13 >= +0
 z_con11_5: +1 Z27 -1 Z27 >= +0
 z_con12_2: +1 Z28 -1 Z3 >= +0
 z_con12_3: +1 Z28 -1 Z7 >= +0
 z_con12_4: +1 Z28 -1 Z14 >= +0
 z_con12_5: +1 Z28 -1 Z28 >= +0
 z_con13_2: +1 Z29 -1 Z3 >= +0
 z_con13_3: +1 Z29 -1 Z7 >= +0
 z_con13_4: +1 Z29 -1 Z14 >= +0
 z_con13_5: +1 Z29 -1 Z29 >= +0
 z_con14_2: +1 Z30 -1 Z3 >= +0
 z_con14_3: +1 Z30 -1 Z7 >= +0
 z_con14_4: +1 Z30 -1 Z15 >= +0
 z_con14_5: +1 Z30 -1 Z30 >= +0
 z_con15_2: +1 Z31 -1 Z3 >= +0
 z_con15_3: +1 Z31 -1 Z7 >= +0
 z_con15_4: +1 Z31 -1 Z15 >= +0
 z_con15_5: +1 Z31 -1 Z31 >= +0
 AlphaCon: +0.0376493228436029 Z16 +0.0478214984381089 Z17 +0.0478214984381089 Z18 +0.0607420144677217 Z19
  +0.0478214984381089 Z20 +0.0607420144677217 Z21 +0.0607420144677217 Z22 +0.0771534235041176 Z23 +0.0478214984381089 Z24
  +0.0607420144677217 Z25 +0.0607420144677217 Z26 +0.0771534235041176 Z27 +0.0607420144677217 Z28 +0.0771534235041176 Z29
  +0.0771534235041176 Z30 +0.0979989025811608 Z31 <= +0.3
Bounds
 0 <= Z2 <= 1
 0 <= Z3 <= 1
 0 <= Z4 <= 1
 0 <= Z5 <= 1
 0 <= Z6 <= 1
 0 <= Z7 <= 1
 0 <= Z8 <= 1
 0 <= Z9 <= 1
 0 <= Z10 <= 1
 0 <= Z11 <= 1
 0 <= Z12 <= 1
 0 <= Z13 <= 1
 0 <= Z14 <= 1
 0 <= Z15 <= 1
 0 <= Z16 <= 1
 0 <= Z17 <= 1
 0 <= Z18 <= 1
 0 <= Z19 <= 1
 0 <= Z20 <= 1
 0 <= Z21 <= 1
 0 <= Z22 <= 1
 0 <= Z23 <= 1
 0 <= Z24 <= 1
 0 <= Z25 <= 1
 0 <= Z26 <= 1
 0 <= Z27 <= 1
 0 <= Z28 <= 1
 0 <= Z29 <= 1
 0 <= Z30 <= 1
 0 <= Z31 <= 1
Binaries
 Z2 Z3 Z4 Z5 Z6 Z7 Z8 Z9 Z10 Z11 Z12 Z13 Z14 Z15 Z16 Z17 Z18 Z19 Z20 Z21 Z22 Z23 Z24 Z25 Z26 Z27 Z28 Z29
 Z30 Z31
End
